001 001 001 000 001 001 000 001 001 002 003 002 002 003 003 004 008 009 008 005 008 007 005 006 004 007 007 009 009 012 013
001 002 002 000 000 000 000 000 001 001 002 003 002 002 003 003 008 007 011 004 008 006 005 006 008 008 008 011 011 012 017
001 001 001 001 000 000 000 000 000 001 001 002 002 003 003 003 006 005 007 006 004 006 006 014 009 008 008 011 008 008 014
001 001 001 001 000 000 001 002 000 001 001 002 002 004 002 003 004 012 006 005 006 009 008 013 005 005 008 010 010 010 014
001 000 000 000 000 000 001 002 002 001 003 002 002 004 003 003 004 004 005 005 005 008 008 010 006 007 008 010 011 009 013
000 000 000 000 000 000 001 001 002 003 003 002 003 004 003 004 004 003 003 003 004 006 006 004 006 006 007 011 011 011 013
000 000 000 000 001 000 001 001 002 003 004 003 003 006 004 005 004 002 003 002 003 005 004 003 004 005 005 011 009 010 006
000 000 000 000 001 000 000 001 002 004 003 004 004 004 007 007 006 004 004 005 002 004 005 003 003 004 005 007 006 006 004
000 000 000 000 001 001 001 001 002 003 003 003 003 002 007 008 005 003 003 003 003 002 003 003 003 005 004 004 004 004 003
000 001 001 001 001 001 000 001 002 004 001 004 004 003 007 005 005 005 005 004 003 002 002 004 004 008 003 003 004 003 003
002 002 003 001 002 002 001 001 003 001 003 003 003 003 004 003 003 004 005 004 004 003 003 005 005 004 004 003 005 005 004
003 003 002 002 004 002 001 002 001 002 001 002 002 003 003 002 003 005 007 005 004 003 007 008 006 004 005 005 005 007 005
003 003 003 003 003 001 001 001 001 001 001 001 003 005 006 004 005 007 011 011 005 001 008 008 006 005 009 005 005 009 006
002 003 002 002 003 002 002 002 002 002 001 001 001 005 009 006 005 010 009 010 003 003 006 005 003 006 015 015 010 012 007
002 002 002 004 004 003 003 002 003 002 002 002 005 007 004 005 005 005 002 002 002 003 005 003 003 009 013 012 018 012 010
001 001 003 003 006 006 004 004 004 001 001 004 007 006 005 004 003 005 002 001 003 004 005 003 006 011 015 019 024 012 017
001 001 004 005 004 003 002 003 002 002 001 006 009 007 006 005 001 002 002 001 002 003 004 007 008 006 010 036 038 021 018
002 004 004 005 004 002 002 001 002 001 001 006 008 006 007 006 002 001 002 002 001 001 010 009 007 005 008 042 029 021 022
002 003 002 004 002 003 002 001 001 001 002 006 003 004 008 006 003 002 003 003 001 006 010 013 010 005 012 021 014 013 015
002 003 002 001 001 002 003 002 001 001 001 003 002 003 009 006 008 004 006 009 008 017 020 018 008 006 008 016 010 008 010
001 003 003 001 001 002 003 003 001 001 001 001 001 002 010 006 005 004 005 010 015 010 025 039 019 012 009 015 012 005 006
001 002 002 001 002 002 002 003 001 001 001 001 000 003 008 008 004 006 006 012 016 014 023 028 020 012 010 017 015 005 005
001 001 001 003 003 002 002 003 001 001 001 001 001 004 005 010 008 010 007 009 013 017 023 018 021 013 015 022 021 005 003
002 002 002 004 004 001 001 001 000 001 002 004 001 001 002 004 007 011 007 005 008 016 019 014 018 015 019 021 024 007 003
003 002 002 003 001 000 000 000 000 000 000 003 002 001 001 003 005 008 003 003 004 008 010 010 017 019 018 017 026 008 004
001 000 001 001 001 001 000 000 000 000 001 001 002 001 001 002 004 005 001 002 001 004 006 010 017 019 011 005 010 007 003
001 000 001 001 001 001 000 000 000 001 002 001 004 001 001 001 001 002 001 000 000 001 004 008 008 -99 016 007 007 005 002
001 001 000 000 000 000 000 000 001 002 002 004 005 001 001 000 000 000 000 000 000 000 002 007 007 014 017 006 006 003 001
002 001 000 000 000 000 000 000 001 002 002 005 006 002 001 000 000 000 000 000 000 000 005 005 004 006 009 004 004 003 001
001 000 000 000 000 000 000 000 000 001 002 002 009 002 000 001 001 001 000 000 000 000 004 003 002 004 004 002 002 003 000
000 001 000 000 000 000 000 000 000 000 000 001 002 001 000 001 001 001 001 000 001 000 004 002 001 002 003 001 001 -99 001
000 000 000 000 000 000 000 000 000 000 000 000 000 000 000 000 000 001 001 003 002 002 003 001 001 002 002 001 001 004 001
000 000 000 000 000 000 000 000 000 000 000 000 000 000 000 000 000 000 001 004 010 003 002 000 001 002 004 002 002 005 002
000 000 000 000 000 000 000 000 000 000 -99 -99 000 000 000 000 000 000 002 002 012 005 003 001 001 003 005 003 004 006 003
000 000 000 000 000 000 000 000 000 000 000 -99 -99 000 000 000 000 002 003 005 009 008 006 003 004 017 010 006 007 007 003
000 000 000 000 000 000 000 000 000 000 -99 -99 -99 000 000 000 000 002 005 007 005 011 010 003 009 015 012 008 009 005 002
000 000 000 000 000 000 000 000 000 000 -99 -99 000 000 000 000 000 001 003 002 009 017 006 003 008 013 015 007 003 003 002
000 -99 000 000 000 000 000 000 000 000 -99 -99 000 000 000 000 000 000 000 004 021 025 006 005 006 013 018 009 003 002 002
000 -99 000 000 000 000 000 000 000 000 000 000 000 000 000 000 000 000 007 010 026 020 013 012 007 008 017 007 004 003 002
000 000 000 000 000 001 001 000 000 000 000 000 000 000 000 000 000 001 005 007 011 008 021 013 007 007 005 003 007 005 002
000 000 000 000 000 001 001 001 000 000 000 000 000 000 000 000 000 000 001 004 006 008 022 012 006 005 002 002 012 008 003
000 000 000 000 000 000 001 000 000 000 000 000 000 000 000 000 000 000 000 002 003 002 012 005 005 003 002 002 004 005 005
000 000 000 000 000 001 000 000 000 000 000 000 000 000 000 000 000 000 000 002 002 002 003 002 001 001 001 002 002 006 013
000 000 000 001 003 002 000 001 000 001 001 001 000 000 000 000 001 000 000 001 000 000 001 000 000 000 001 001 002 009 012
000 000 000 002 002 001 001 001 000 001 002 002 001 000 000 002 001 001 001 002 001 000 001 000 000 000 000 000 002 008 009
000 000 000 000 001 001 000 000 001 001 002 002 001 000 000 001 002 000 000 002 001 001 001 000 000 000 000 000 003 007 007
000 000 000 000 000 000 000 000 000 001 001 003 001 000 001 001 000 000 001 002 001 001 000 000 000 000 000 000 -99 003 003
000 000 000 000 000 000 000 000 000 000 001 001 001 001 001 000 000 000 000 000 001 000 000 000 000 000 000 000 000 001 001
000 000 001 000 001 001 000 000 000 000 001 000 001 001 004 003 001 001 000 000 000 000 000 000 001 000 000 000 000 000 000
000 001 001 000 002 001 000 000 000 000 000 000 000 001 006 004 005 002 000 000 000 001 000 000 001 000 000 000 000 -99 000
000 000 000 001 002 002 000 000 000 000 000 000 000 002 004 006 006 005 001 000 002 003 004 001 001 001 001 000 000 -99 -99
000 000 000 001 002 003 000 000 000 000 000 000 000 000 002 020 013 005 002 002 006 006 005 002 005 001 001 001 001 000 -99
000 000 001 001 003 002 001 000 000 000 000 000 000 000 013 030 011 008 001 004 013 016 003 002 003 001 002 002 001 000 -99
000 000 002 003 002 001 001 001 000 000 -99 000 000 000 009 012 008 004 002 005 010 008 003 002 001 001 002 004 001 000 -99
000 000 001 001 001 001 001 001 000 000 000 000 000 000 001 002 003 002 001 003 006 003 004 002 001 001 002 001 000 -99 -99
